111111111111111
101000000000101
101011111110101
100000001000101
111111101011101
100000101010001
101110111011101
100010001010001
111110101010101
100000100010101
111011111010111
100010100010001
101110101111101
100000100000001
111111111111111
